# REAX potential for Fe/O/H system
# .....

units		real
boundary	p p p

atom_style	charge
read_data	data2.FeOH3
replicate	3 3 3

pair_style	reax/c lmp_control
pair_coeff	* * ffield.reax.Fe_O_C_H H O Fe

velocity	all create 300.0 4928459

neighbor	2 bin
neigh_modify	every 10 delay 0 check no

compute		myRDF all rdf 100 1 1 2 2 3 3 1 2 1 3 2 3

fix		1 all npt temp 300.0 300.0 0.1 iso 1.0 1.0 1.0
fix		2 all qeq/reax 1 0.0 10.0 1e-6 param.qeq
fix		3 all ave/time 1 200 200 c_myRDF[*] file FeOH3-2-rdf.dat mode vector



timestep	0.01

thermo 		1

dump		1 all atom 30 dump.reax.feoh2

run		20000
